1 1036 5
2 957 5
6 885 5
31 873 5
46 849 5
71 844 5
186 839 5
237 828 5



1 1061 5
2 959 5
3 943 5
4 922 5
6 895 5
30 833 5
42 829 5
271 828 5
597 812 5



1 1063 5
2 927 5
5 906 5
15 903 5
32 892 5
36 879 5
40 861 5
55 846 5
64 844 5
110 843 5
167 829 5
228 812 5



1 1009 5
2 987 5
3 983 5
4 911 5
9 883 5
40 843 5
96 816 5
677 804 5



1 978 5
2 965 5
5 918 5
6 892 5
13 891 5
14 866 5
26 852 5
63 835 5
261 829 5



